32      4       
16      12      17      19      
0       0       0       0       0       1       2       
9       9       0       5       0       1       3       
4       0       11      14      0       2       4       8       
5       0       3       0       9       1       5       
6       14      0       1       0       2       6       7       
4       11      0       0       1       2       9       12      
5       11      5       0       0       1       10      
10      0       5       4       0       1       9       
4       0       0       12      16      2       11      13      
3       8       0       0       10      2       11      13      
4       0       1       7       0       3       14      15      17      
7       0       0       4       19      3       14      15      17      
5       0       11      0       12      1       14      
2       0       7       4       0       3       16      18      24      
5       7       0       4       0       2       16      24      
3       3       0       0       14      3       19      20      22      
10      1       0       0       5       3       19      20      23      
5       0       6       0       9       3       20      22      23      
10      9       0       0       3       1       21      
5       0       11      13      0       1       25      
8       8       0       2       0       1       25      
5       0       6       0       9       1       25      
5       1       0       0       5       1       25      
3       0       2       7       0       1       25      
1       12      1       0       0       2       26      27      
1       10      6       0       0       2       28      29      
4       0       5       17      0       1       28      
2       0       0       17      4       2       30      31      
9       1       0       0       12      1       30      
6       0       0       17      15      1       32      
8       15      10      0       0       1       32      
0       0       0       0       0       0       
